
Gurobi 6.5.2 (linux64) logging started Sun Sep 18 18:42:31 2016


Gurobi 6.5.2 (linux64) logging started Sun Sep 18 18:42:31 2016

Optimize a model with 101 rows, 908 columns and 1929 nonzeros
Coefficient statistics:
  Matrix range    [1e+00, 2e+00]
  Objective range [1e+00, 1e+02]
  Bounds range    [1e+00, 1e+00]
  RHS range       [1e+00, 1e+00]
Found heuristic solution: objective 1604
Presolve removed 32 rows and 7 columns
Presolve time: 0.00s
Presolved: 69 rows, 901 columns, 1818 nonzeros
Variable types: 0 continuous, 901 integer (901 binary)

Root relaxation: objective 5.037500e+02, 70 iterations, 0.00 seconds

    Nodes    |    Current Node    |     Objective Bounds      |     Work
 Expl Unexpl |  Obj  Depth IntInf | Incumbent    BestBd   Gap | It/Node Time

     0     0  503.75000    0   16 1604.00000  503.75000  68.6%     -    0s
     0     0  518.66667    0   18 1604.00000  518.66667  67.7%     -    0s
     0     0  520.00000    0   16 1604.00000  520.00000  67.6%     -    0s
     0     0  520.30000    0   19 1604.00000  520.30000  67.6%     -    0s
     0     0  521.50000    0   22 1604.00000  521.50000  67.5%     -    0s
     0     0  521.62500    0   26 1604.00000  521.62500  67.5%     -    0s
     0     0  521.62500    0   26 1604.00000  521.62500  67.5%     -    0s
     0     2  521.62500    0   26 1604.00000  521.62500  67.5%     -    0s
H  996   842                     762.0000000  524.00000  31.2%   4.0    0s
* 1043   891             121     754.0000000  524.00000  30.5%   4.0    0s
H 1101   884                     595.0000000  530.39737  10.9%   3.9    4s
  1173   921  546.00000   23    -  595.00000  532.12500  10.6%   4.4    5s
* 6009  3561              99     592.0000000  539.50000  8.87%   4.1    7s
* 6234  2762             106     569.0000000  539.57143  5.17%   4.1    7s
  9408  4793  553.16667   39   11  569.00000  540.50000  5.01%   4.0   10s

Cutting planes:
  Gomory: 8
  Cover: 24
  Flow cover: 11
  Zero half: 16
  Lazy constraints: 1177

Explored 10112 nodes (40074 simplex iterations) in 10.07 seconds
Thread count was 8 (of 8 available processors)

Time limit reached
Best objective 5.690000000000e+02, best bound 5.410000000000e+02, gap 4.9209%
